c turning on binary mode checking
c parsing input formula with 259840 variables and 1039924 clauses
c finished parsing, read 24528901 bytes from proof file
c detected empty clause; start verification via backward checking
c 16729 of 1039924 clauses in core                            
c 23555 of 625246 lemmas in core using 203687 resolution steps
c 0 RAT lemmas in core; 1590 redundant literals in core lemmas
s VERIFIED
c verification time: 3.170 seconds
